Input: forum-13crafb.fixed040-Forb.dzn
============================================================
Total Runtime: 1.4236 seconds
Input parsing: 0.0008 seconds
Constraint building: 0.7382 seconds
MaxSAT solving: 0.1681 seconds
============================================================

Total variables: 222313
Total clauses: 468105
MaxSAT found with cost: N/A
NO SOLUTION FOUND
